0 8 106 72 20 8 12 89 64 79 86
8 0 9 46 32 18 95 11 99 87 14
106 9 0 26 48 104 86 43 59 92 90
72 46 26 0 31 82 9 91 20 122 102
20 32 48 31 0 50 28 118 3 45 15
8 18 104 82 50 0 104 31 51 33 118
12 95 86 9 28 104 0 21 86 36 117
89 11 43 91 118 31 21 0 23 40 59
64 99 59 20 3 51 86 23 0 99 5
79 87 92 122 45 33 36 40 99 0 71
86 14 90 102 15 118 117 59 5 71 0
